
220.0
220.0
220.0
220.0
220.0
220.0
220.0
220.0
220.0
220.0
220.0
220.0
220.0
230.0
220.0
320.0
220.0
220.0
220.0
220.0
290.0
280.0
220.0
220.0
220.0
220.0
220.0
220.0
220.0
220.0
220.0
220.0
230.0
220.0
220.0
220.0
300.0
220.0
220.0
230.0
220.0
220.0
220.0
220.0
220.0
220.0
220.0
220.0
220.0
220.0